(set-logic ALL)
(set-option :produce-models true)
(declare-sort BoundSet 0)
(declare-sort UnboundSet 0)
(declare-fun IsBald (BoundSet) Bool)
(declare-fun HasHandOnShoulder (BoundSet) Bool)
(declare-fun IsTouching (BoundSet BoundSet) Bool)
(assert (not (=> (and (exists ((b BoundSet)) (exists ((a BoundSet)) (and (IsBald a) (HasHandOnShoulder b)))) (and (forall ((g BoundSet)) (forall ((e BoundSet)) (forall ((f BoundSet)) (=> (IsBald e) (IsTouching f g))))) (and (forall ((h BoundSet)) (forall ((j BoundSet)) (forall ((i BoundSet)) (=> (HasHandOnShoulder h) (IsTouching i j))))) (forall ((m BoundSet)) (forall ((k BoundSet)) (forall ((l BoundSet)) (=> (IsTouching k l) (HasHandOnShoulder m)))))))) (exists ((c BoundSet)) (exists ((d BoundSet)) (IsTouching c d))))))
(check-sat)
(get-model)